40
7
5
2
36 30
100 45
130 50
40 130
70 110
135 100
36 30
100 45
130 50
40 130
70 110
135 100
158 35
52 110
78 105
7 124
104 46
56 109
26 127
98 44
118 101
133 108
80 116
122 47
64 30
52 18
31 18
84 108
104 151
65 103
86 46
57 81
100 47
24 25
148 97
34 129
59 53
37 22
96 104
114 156
107 77
129 52
107 47
107 44
133 90
90 49
151 95
108 42
27 124
123 52
145 90
103 39
